
Gurobi 6.5.2 (linux64) logging started Wed Mar 15 12:55:26 2017


Gurobi 6.5.2 (linux64) logging started Wed Mar 15 12:55:26 2017

Optimize a model with 201 rows, 3565 columns and 7423 nonzeros
Coefficient statistics:
  Matrix range    [1e+00, 2e+00]
  Objective range [1e+00, 1e+02]
  Bounds range    [1e+00, 1e+00]
  RHS range       [1e+00, 1e+00]
Found heuristic solution: objective 2765
Presolve removed 57 rows and 8 columns
Presolve time: 0.02s
Presolved: 144 rows, 3557 columns, 7191 nonzeros
Variable types: 0 continuous, 3557 integer (3557 binary)

Root relaxation: objective 7.567500e+02, 121 iterations, 0.00 seconds

    Nodes    |    Current Node    |     Objective Bounds      |     Work
 Expl Unexpl |  Obj  Depth IntInf | Incumbent    BestBd   Gap | It/Node Time

     0     0  756.75000    0   50 2765.00000  756.75000  72.6%     -    0s
     0     0  807.08874    0   86 2765.00000  807.08874  70.8%     -    0s
     0     0  819.90833    0   37 2765.00000  819.90833  70.3%     -    0s
     0     0  822.51667    0   62 2765.00000  822.51667  70.3%     -    0s
     0     0  823.40079    0   87 2765.00000  823.40079  70.2%     -    0s
     0     0  824.75000    0   77 2765.00000  824.75000  70.2%     -    0s
     0     0  824.75000    0   47 2765.00000  824.75000  70.2%     -    0s
     0     2  824.75000    0   47 2765.00000  824.75000  70.2%     -    0s
  1103  1031  842.00000   23    6 2765.00000  835.00000  69.8%   5.4    5s
* 4336  2800             289    1431.0000000  835.50000  41.6%   5.7    8s
* 4340  2800             288    1427.0000000  835.50000  41.5%   5.7    8s
  6132  4296 1121.50000  192    2 1427.00000  835.66667  41.4%   5.4   10s

Cutting planes:
  Gomory: 31
  Cover: 81
  MIR: 4
  Flow cover: 13
  Zero half: 7
  Lazy constraints: 528

Explored 6278 nodes (34243 simplex iterations) in 10.02 seconds
Thread count was 8 (of 8 available processors)

Time limit reached
Best objective 1.427000000000e+03, best bound 8.360000000000e+02, gap 41.4156%
